number_of_breeds = 208;

breed_names = [
  /* Herding */
  "Australian Cattle Dog",
  "Australian Shepherd",
  "Bearded Collie",
  "Beauceron",
  "Belgian Laekenois",
  "Belgian Malinois",
  "Belgian Sheepdog",
  "Belgian Tervuren",
  "Bergamasco",
  "Berger Picard",
  "Border Collie",
  "Bouvier des Flandres",
  "Briard",
  "Canaan Dog",
  "Cardigan Welsh Corgi",
  "Collie",
  "Entlebucher Mountain Dog",
  "Finnish Lapphund",
  "German Shepherd Dog",
  "Icelandic Sheepdog",
  "Miniature American Shepherd",
  "Norwegian Buhund",
  "Old English Sheepdog",
  "Pembroke Welsh Corgi",
  "Polish Lowland Sheepdog",
  "Puli",
  "Pumi",
  "Pyrenean Shepherd",
  "Shetland Sheepdog",
  "Spanish Water Dog",
  "Swedish Vallhund",

  /* Hound */
  "Afghan Hound",
  "American English Coonhound",
  "American Foxhound",
  "Azawakh",
  "Basenji",
  "Basset Hound",
  "Beagle",
  "Black and Tan Coonhound",
  "Bloodhound",
  "Bluetick Coonhound",
  "Borzoi",
  "Cirneco Dell’Etna",
  "Dachshund"
  "English Foxhound",
  "Grand Basset Griffon Vendeen",
  "Greyhound",
  "Harrier",
  "Ibizan Hound",
  "Irish Wolfhound",
  "Norwegian Elkhound",
  "Otterhound",
  "Petit Basset Griffon Vendeen",
  "Pharaoh Hound",
  "Plott Hound",
  "Portuguese Podengo Pequeno",
  "Redbone Coonhound",
  "Rhodesian Ridgeback",
  "Saluki",
  "Scottish Deerhound",
  "Sloughi",
  "Treeing Walker Coonhound",
  "Whippet",

  /* Toy */
  "Affenpinscher",
  "Biewer Terrier",
  "Brussels Griffon",
  "Cavalier King Charles Spaniel",
  "Chihuahua",
  "Chinese Crested",
  "English Toy Spaniel",
  "Havanese",
  "Italian Greyhound",
  "Japanese Chin",
  "Maltese",
  "Manchester Terrier (Toy)",
  "Miniature Pinscher",
  "Papillon",
  "Pekingese",
  "Pomeranian",
  "Poodle (Toy)",
  "Pug",
  "Shih Tzu",
  "Silky Terrier",
  "Toy Fox Terrier",
  "Yorkshire Terrier",

  /* Non-Sporting */
  "American Eskimo Dog",
  "Bichon Frise",
  "Boston Terrier",
  "Bulldog",
  "Chinese Shar-Pei",
  "Chow Chow",
  "Coton De Tulear",
  "Dalmatian",
  "Finnish Spitz",
  "French Bulldog",
  "Keeshond",
  "Lhasa Apso",
  "Lowchen",
  "Norwegian Lundhund",
  "Poodle",
  "Schipperke",
  "Shiba Inu",
  "Tibetan Spaniel",
  "Tibetan Terrier",
  "Xoloitzcuintli",

  /* Sporting */
  "American Water Spaniel",
  "Barbet",
  "Boykin Spaniel",
  "Brittany",
  "Chesapeake Bay Retriever",
  "Clumber Spaniel",
  "Cocker Spaniel",
  "Curly-Coated Retriever",
  "English Cocker Spaniel",
  "English Setter",
  "English Springer Spaniel",
  "Field Spaniel",
  "Flat-Coated Retriever",
  "German Shorthaired Pointer",
  "German Wirehaired Pointer",
  "Golden Retriever",
  "Gordon Setter",
  "Irish Red and White Setter",
  "Irish Setter",
  "Irish Water Spaniel",
  "Labrador Retriever",
  "Lagotto Romagnolo",
  "Nederlandse Kooikerhondje",
  "Nova Scotia Duck Tolling Retriever",
  "Pointer",
  "Spinone Italiano",
  "Sussex Spaniel",
  "Vizsla",
  "Weimaraner",
  "Welsh Springer Spaniel",
  "Wirehaired Pointing Griffon",
  "Wirehaired Vizsla",

  /* Terrier */
  "Airedale Terrier",
  "American Hairless Terrier",
  "American Staffordshire Terrier",
  "Australian Terrier",
  "Bedlington Terrier",
  "Border Terrier",
  "Bull Terrier",
  "Cairn Terrier",
  "Cesky Terrier",
  "Dandie Dinmont Terrier",
  "Glen of Imaal Terrier",
  "Irish Terrier",
  "Kerry Blue Terrier",
  "Lakeland Terrier",
  "Manchester Terrier (Standard)",
  "Miniature Bull Terrier",
  "Miniature Schnauzer",
  "Norfolk Terrier",
  "Norwich Terrier",
  "Parson Russell Terrier",
  "Rat Terrier",
  "Russell Terrier",
  "Scottish Terrier",
  "Sealyham Terrier",
  "Skye Terrier",
  "Smooth Fox Terrier",
  "Soft Coated Wheaten Terrier",
  "Staffordshire Bull Terrier",
  "Welsh Terrier",
  "West Highland White Terrier",
  "Wire Fox Terrier",

  /* Working */
  "Akita",
  "Alaskan Malamute",
  "Anatolian Shepherd Dog",
  "Bernese Mountain Dog",
  "Black Russian Terrier",
  "Boerboel",
  "Boxer",
  "Bullmastiff",
  "Cane Corso",
  "Chinook",
  "Doberman Pinscher",
  "Dogo Argentino",
  "Dogue de Bordeaux",
  "German Pinscher",
  "Giant Schnauzer",
  "Great Dane",
  "Great Pyrenees",
  "Greater Swiss Mountain Dog",
  "Komondor",
  "Kuvasz",
  "Leonberger",
  "Mastiff",
  "Neapolitan Mastiff",
  "Newfoundland",
  "Portuguese Water Dog",
  "Rottweiler",
  "Saint Bernard",
  "Samoyed",
  "Siberian Husky",
  "Standard Schnauzer",
  "Tibetan Mastiff",

   /* Miscellaneous */
  "Bracco Italiano",
  "Dutch Shepherd",
  "Lancashire Heeler",
  "Mudi",
  "Norrbottenspets",
  "Peruvian Inca Orchid",
  "Portuguese Podengo",
  "Russian Toy",
  "Teddy Roosevelt Terrier"
];

number_of_days = 4;
